
Gurobi 7.0.2 (mac64, Python) logging started Wed Sep 12 17:47:28 2018


Gurobi 7.0.2 (mac64, Python) logging started Wed Sep 12 17:50:31 2018


Gurobi 7.0.2 (mac64, Python) logging started Wed Sep 12 17:56:34 2018


Gurobi 7.0.2 (mac64, Python) logging started Wed Sep 12 17:57:11 2018


Gurobi 7.0.2 (mac64, Python) logging started Wed Sep 12 17:58:55 2018


Gurobi 7.0.2 (mac64, Python) logging started Wed Sep 12 18:04:19 2018


Gurobi 7.0.2 (mac64, Python) logging started Thu Sep 13 09:43:10 2018


Gurobi 7.0.2 (mac64, Python) logging started Thu Sep 13 09:46:29 2018


Gurobi 7.0.2 (mac64, Python) logging started Thu Sep 13 09:58:30 2018


Gurobi 7.0.2 (mac64, Python) logging started Thu Sep 13 10:02:30 2018


Gurobi 7.0.2 (mac64, Python) logging started Thu Sep 13 10:06:09 2018


Gurobi 7.0.2 (mac64, Python) logging started Thu Sep 13 10:07:26 2018


Gurobi 7.0.2 (mac64, Python) logging started Thu Sep 13 10:09:55 2018


Gurobi 7.0.2 (mac64, Python) logging started Thu Sep 13 10:10:19 2018


Gurobi 7.0.2 (mac64, Python) logging started Thu Sep 13 10:16:12 2018


Gurobi 7.0.2 (mac64, Python) logging started Thu Sep 13 10:16:31 2018


Gurobi 7.0.2 (mac64, Python) logging started Thu Sep 13 10:17:01 2018


Gurobi 7.0.2 (mac64, Python) logging started Thu Sep 13 10:19:35 2018


Gurobi 7.0.2 (mac64, Python) logging started Thu Sep 13 10:20:13 2018


Gurobi 7.0.2 (mac64, Python) logging started Thu Sep 13 10:20:47 2018


Gurobi 7.0.2 (mac64, Python) logging started Thu Sep 13 10:21:08 2018


Gurobi 7.0.2 (mac64, Python) logging started Thu Sep 13 10:24:19 2018


Gurobi 7.0.2 (mac64, Python) logging started Thu Sep 13 10:30:12 2018


Gurobi 7.0.2 (mac64, Python) logging started Thu Sep 13 10:30:51 2018


Gurobi 7.0.2 (mac64, Python) logging started Thu Sep 13 10:33:44 2018


Gurobi 7.0.2 (mac64, Python) logging started Thu Sep 13 10:34:38 2018


Gurobi 7.0.2 (mac64, Python) logging started Thu Sep 13 10:35:53 2018


Gurobi 7.0.2 (mac64, Python) logging started Thu Sep 13 10:40:46 2018

